c random assignment satisfied 0/430 clauses
o 430
c flipped 0/100 variables (k=0)
c solution improved by 180 clauses
o 250
c flipped 0/100 variables (k=0)
c solution improved by 24 clauses
o 226
c flipped 0/100 variables (k=0)
c solution improved by 8 clauses
o 218
c flipped 0/100 variables (k=0)
c solution improved by 1 clause
o 217
c flipped 0/100 variables (k=0)
c solution improved by 1 clause
o 216
c flipped 0/100 variables (k=0)
c solution improved by 41 clauses
o 175
c flipped 0/100 variables (k=0)
c solution improved by 16 clauses
o 159
c flipped 0/100 variables (k=0)
c solution improved by 8 clauses
o 151
c flipped 0/100 variables (k=0)
c solution improved by 8 clauses
o 143
c flipped 0/100 variables (k=0)
c solution improved by 1 clause
o 142
c flipped 0/100 variables (k=0)
c solution improved by 16 clauses
o 126
c flipped 0/100 variables (k=0)
c solution improved by 2 clauses
o 124
c flipped 0/100 variables (k=0)
c solution improved by 1 clause
o 123
c flipped 0/100 variables (k=0)
c solution improved by 1 clause
o 122
c flipped 0/100 variables (k=0)
c solution improved by 1 clause
o 121
c flipped 0/100 variables (k=0)
c solution improved by 13 clauses
o 108
c flipped 0/100 variables (k=0)
c solution improved by 1 clause
o 107
c flipped 0/100 variables (k=0)
c solution improved by 1 clause
o 106
c flipped 0/100 variables (k=0)
c solution improved by 13 clauses
o 93
c flipped 0/100 variables (k=0)
c solution improved by 8 clauses
o 85
c flipped 0/100 variables (k=0)
c solution improved by 1 clause
o 84
c flipped 0/100 variables (k=0)
c solution improved by 1 clause
o 83
c flipped 0/100 variables (k=0)
c solution improved by 1 clause
o 82
c flipped 0/100 variables (k=0)
c solution improved by 7 clauses
o 75
c flipped 0/100 variables (k=0)
c solution improved by 4 clauses
o 71
c flipped 0/100 variables (k=0)
c solution improved by 2 clauses
o 69
c flipped 0/100 variables (k=0)
c solution improved by 8 clauses
o 61
c flipped 0/100 variables (k=0)
c solution improved by 2 clauses
o 59
c flipped 0/100 variables (k=0)
c solution improved by 1 clause
o 58
c flipped 0/100 variables (k=0)
c solution improved by 3 clauses
o 55
c flipped 0/100 variables (k=0)
c solution improved by 1 clause
o 54
c flipped 0/100 variables (k=0)
c solution improved by 3 clauses
o 51
c flipped 0/100 variables (k=0)
c solution improved by 1 clause
o 50
v 0111111000100001110100011110010110001100001011111111111000001010010110100001010111110011010101010100
c stuck at 380/430 clauses with k=0
s UNKNOWN
